%rwf=ts.rwf
%nosave
%chk=ts.chk
%nprocshared=20
%mem=50GB
#p opt=(calcfc,ts,modredundant,noeigentest) wb97xd gen

Transition state search

-1 1
 N
 C                  1            B1
 C                  1            B2    2            A1
 O                  2            B3    1            A2    3            D1    0
 C                  2            B4    1            A3    3            D2    0
 O                  5            B5    2            A4    1            D3    0
 C                  3            B6    1            A5    2            D4    0
 C                  7            B7    3            A6    1            D5    0
 C                  8            B8    7            A7    3            D6    0
 C                  9            B9    8            A8    7            D7    0
 C                  3           B10    1            A9    2            D8    0
 H                 10           B11    9           A10    8            D9    0
 H                 11           B12    3           A11    1           D10    0
 H                  8           B13    7           A12    3           D11    0
 H                  9           B14    8           A13    7           D12    0
 C                  1           B15    2           A14    3           D13    0
 I                 16           B16    1           A15    2           D14    0
 H                 16           B17    1           A16    2           D15    0
 H                 16           B18    1           A17    2           D16    0
 H                 16           B19    1           A18    2           D17    0

   B1             1.36240000
   B2             1.43670000
   B3             1.22210000
   B4             1.45840000
   B5             1.22060000
   B6             1.38580000
   B7             1.39160000
   B8             1.40420000
   B9             1.41090000
   B10            1.40480000
   B11            1.08230000
   B12            1.07980000
   B13            1.08220000
   B14            1.08220000
   B15            2.30000000
   B16            2.90000000
   B17            1.09380000
   B18            1.11230000
   B19            1.11250000
   A1           107.13000000
   A2           124.25000000
   A3           110.03000000
   A4           127.24000000
   A5           110.28000000
   A6           122.16000000
   A7           118.18000000
   A8           120.34000000
   A9           129.40000000
   A10          119.75000000
   A11          122.55000000
   A12          120.94000000
   A13          119.84000000
   A14          123.87000000
   A15          179.23000000
   A16           92.14000000
   A17           90.53000000
   A18           90.52000000
   D1           179.97000000
   D2            -0.47000000
   D3          -179.72000000
   D4             0.58000000
   D5           179.57000000
   D6             0.22000000
   D7             0.15000000
   D8          -179.37000000
   D9           179.74000000
   D10            0.37000000
   D11         -179.79000000
   D12         -179.97000000
   D13          179.23000000
   D14         -108.03000000
   D15         -118.99000000
   D16            0.00000000
   D17          121.88000000

D 2 1 3 16 F

C O N H 0
6-311G(d,p)
****
I 0
@../iodine.gbs
****

